p wcnf 117 141 142 
1 -46 13 0 
1 88 -106 0 
1 -30 63 0 
1 -62 90 0 
1 -74 59 0 
1 19 -98 0 
1 -40 6 0 
1 -62 70 0 
1 96 112 0 
1 29 47 0 
1 76 85 0 
1 -102 -19 0 
1 71 -90 0 
1 -97 -62 0 
1 -74 -116 0 
1 114 89 0 
1 10 -28 0 
1 89 -115 0 
1 22 85 0 
1 -93 -76 0 
1 -39 80 0 
1 -97 50 0 
1 -116 -49 0 
1 89 -48 0 
1 -21 9 0 
1 -109 -39 0 
1 106 -62 0 
1 11 -97 0 
1 36 85 0 
1 63 97 0 
1 -109 96 0 
1 85 -81 0 
1 -102 9 0 
1 29 31 0 
1 35 95 0 
1 24 50 0 
1 91 -86 0 
1 59 -65 0 
1 -56 102 0 
1 -63 24 0 
1 -5 -106 0 
1 -115 67 0 
1 -23 43 0 
1 -29 84 0 
1 87 -6 0 
1 81 -52 0 
1 18 109 0 
1 63 -89 0 
1 8 -33 0 
1 -13 -68 0 
1 79 -8 0 
1 74 -84 0 
1 42 1 0 
1 98 -102 0 
1 116 84 0 
1 -109 87 0 
1 -9 -88 0 
1 -45 86 0 
1 -4 27 0 
1 -1 -75 0 
1 -88 -105 0 
1 34 79 0 
1 7 -10 0 
1 -48 -53 0 
1 60 70 0 
1 26 56 0 
1 -99 102 0 
1 -67 80 0 
1 -108 84 0 
1 116 -1 0 
1 46 -117 0 
1 -28 117 0 
1 -29 82 0 
1 46 67 0 
1 -47 -72 0 
1 -45 -18 0 
1 -54 -45 0 
1 -89 86 0 
1 -1 -50 0 
1 99 97 0 
1 27 -86 0 
1 108 -59 0 
1 -96 -79 0 
1 -36 -75 0 
1 -30 -49 0 
1 -57 93 0 
1 109 -15 0 
1 102 -82 0 
1 -34 43 0 
1 -21 -115 0 
1 79 -19 0 
1 107 -15 0 
1 -18 -80 0 
1 -38 6 0 
1 71 -113 0 
1 114 -53 0 
1 -30 -97 0 
1 55 -70 0 
1 -24 -101 0 
1 -103 -68 0 
1 -77 61 0 
1 -83 -45 0 
1 -32 -85 0 
1 14 -70 0 
1 62 -10 0 
1 -62 -3 0 
1 85 77 0 
1 105 50 0 
1 -40 -46 0 
1 -101 99 0 
1 92 60 0 
1 -111 102 0 
1 9 23 0 
1 87 -28 0 
1 49 -6 0 
1 -102 -30 0 
1 23 61 0 
1 -63 -50 0 
1 -3 -99 0 
1 54 1 0 
1 -12 -103 0 
1 101 83 0 
1 -14 -93 0 
1 58 19 0 
1 -77 37 0 
1 -112 23 0 
1 -67 101 0 
1 -91 -66 0 
1 95 21 0 
1 -48 -92 0 
1 7 54 0 
1 1 68 0 
1 -100 110 0 
1 1 -14 0 
1 36 51 0 
1 -13 -74 0 
1 80 98 0 
1 -45 -33 0 
1 29 -67 0 
1 17 -53 0 
1 -51 -25 0 
